unsat
(:SPACER-conj                         2
 :SPACER-inductive-gen                85
 :SPACER-inductive-gen-weaken-fail    171
 :SPACER-inductive-level              4
 :SPACER-max-depth                    9
 :SPACER-max-query-lvl                9
 :SPACER-non-local-gen                12
 :SPACER-num-active-lemmas            23
 :SPACER-num-ctp-blocked              65
 :SPACER-num-invariants               46
 :SPACER-num-is_invariant             299
 :SPACER-num-lemma-jumped             7
 :SPACER-num-lemmas                   102
 :SPACER-num-pobs                     48
 :SPACER-num-propagations             172
 :SPACER-num-queries                  76
 :SPACER-num-reach-queries            2
 :SPACER-num-reuse-reach-facts        2
 :SPACER-subsume-failed               2
 :SPACER-subsume-pob                  12
 :SPACER-subsume-success              18
 :added-eqs                           23850
 :arith-assert-diseq                  8128
 :arith-assert-lower                  36392
 :arith-assert-upper                  33766
 :arith-bound-prop                    1924
 :arith-conflicts                     254
 :arith-eq-adapter                    2588
 :arith-fixed-eqs                     7932
 :arith-num-rows                      82
 :arith-offset-eqs                    4580
 :arith-pivots                        3036
 :arith-row-summations                32924
 :arith-tableau-max-columns           128
 :arith-tableau-max-rows              82
 :conflicts                           1840
 :decisions                           65432
 :del-clause                          2146
 :final-checks                        588
 :iuc_solver.num_proxies              321
 :max-memory                          37.54
 :memory                              36.32
 :minimized-lits                      618
 :mk-bool-var                         5576
 :mk-clause                           6560
 :num-allocs                          284534983
 :num-checks                          1666
 :pool_solver.checks                  833
 :pool_solver.checks.sat              287
 :pool_solver.checks.undef            7
 :propagations                        186250
 :rlimit-count                        1317934
 :time                                0.81
 :time.iuc_solver.get_iuc             0.11
 :time.iuc_solver.get_iuc.hyp_reduce1 0.04
 :time.iuc_solver.get_iuc.hyp_reduce2 0.06
 :time.iuc_solver.get_iuc.learn_core  0.02
 :time.pool_solver.proof              0.02
 :time.pool_solver.smt.total          0.38
 :time.pool_solver.smt.total.sat      0.18
 :time.pool_solver.smt.total.undef    0.01
 :time.spacer.ctp                     0.01
 :time.spacer.init_rules              0.00
 :time.spacer.mbp                     0.01
 :time.spacer.solve                   0.78
 :time.spacer.solve.propagate         0.12
 :time.spacer.solve.reach             0.66
 :time.spacer.solve.reach.children    0.04
 :time.spacer.solve.reach.cluster     0.10
 :time.spacer.solve.reach.gen.global  0.05
 :time.spacer.solve.reach.gen.ind     0.17)
(:max-memory   37.54
 :memory       36.32
 :num-allocs   284534983
 :rlimit-count 1317934
 :time         0.81
 :total-time   0.83)
